153
100
1
19
14
32
2
37
34
8
9
20
46
53
61
44
3
33
41
49
62
6
17
28
19
11
30
33
8
19
14
30
24
10
59
1
51
13
13
15
43
43
13
34
9
14
32
2
21
22
37
30
9
25
35
28
15
14
28
32
20
4
13
50
29
66
14
14
13
43
4
25
34
26
52
50
12
9
7
4
58
31
1
42
3
8
12
47
41
72
16
19
1
40
42
5
63
16
29
18
8
42
45
73
58
41
34
46
32
32
25
62
67
29
52
30
51
20
34
58
61
8
5
29
2
34
49
18
46
71
36
41
22
2
7
16
48
21
63
47
46
17
3
45
21
39
59
6
30
20
55
50
57
41
38
